;; Mutation-Based Equivalence Benchmark
;; Source:     AutomatArk / instance13429.smt2
;; Mutations:  range_expand_hi, range_shrink_lo, literal_char_dec
;; Status:     sat
;;
;; Original regex vs mutated regex
;; Equivalence check: unsat ⟺ L(R1) = L(R2)

(set-info :smt-lib-version 2.6)
(set-info :category "mutation")
(set-info :status sat)
(set-logic QF_S)


;; R1: original
;; R2: mutated (range_expand_hi, range_shrink_lo, literal_char_dec)
(assert
  (not
    (=
      (re.++ (str.to_re "\u{a}+") (re.union (re.++ (str.to_re "1") (re.opt (str.to_re " ")) (re.opt (re.union (re.++ (str.to_re "2") (re.union (re.++ (str.to_re "4") (re.union (str.to_re "2") (str.to_re ",") (str.to_re "6"))) (re.++ (str.to_re "6") (re.union (str.to_re "4") (str.to_re ",") (str.to_re "8"))) (str.to_re "84"))) (re.++ (str.to_re "34") (re.union (str.to_re "0") (str.to_re "5"))) (re.++ (str.to_re "4") (re.union (str.to_re "41") (str.to_re "73"))) (re.++ (str.to_re "6") (re.union (str.to_re "49") (str.to_re "64") (re.++ (str.to_re "7") (re.union (str.to_re "0") (str.to_re ",") (str.to_re "1"))) (str.to_re "84"))) (re.++ (str.to_re "7") (re.union (str.to_re "58") (str.to_re "67") (re.++ (str.to_re "8") (re.union (str.to_re "4") (str.to_re ",") (str.to_re "7"))))) (re.++ (str.to_re "8") (re.union (str.to_re "09") (str.to_re "29") (re.++ (str.to_re "6") (re.union (str.to_re "8") (str.to_re ",") (str.to_re "9"))) (str.to_re "76"))) (str.to_re "939")))) (re.++ (str.to_re "2") (re.union (str.to_re "0") (re.++ (str.to_re "1") (re.union (re.range "1" "4") (str.to_re ",") (str.to_re "6") (str.to_re "8"))) (re.++ (str.to_re "2") (re.range "0" "9")) (re.++ (str.to_re "3") (re.range "0" "9")) (re.++ (str.to_re "4") (re.range "0" "9")) (re.++ (str.to_re "5") (re.range "0" "8")) (re.++ (str.to_re "6") (re.range "0" "9")) (str.to_re "7") (re.++ (str.to_re "9") (re.union (str.to_re "0") (str.to_re ",") (str.to_re "1") (re.range "7" "9"))))) (re.++ (str.to_re "3") (re.union (re.range "0" "4") (re.++ (str.to_re "5") (re.range "0" "9")) (str.to_re "6") (re.++ (str.to_re "7") (re.range "0" "9")) (re.++ (str.to_re "8") (re.union (re.range "0" "7") (str.to_re ",") (str.to_re "9"))) (str.to_re "9"))) (re.++ (str.to_re "4") (re.union (str.to_re "0") (str.to_re "1") (re.++ (str.to_re "2") (re.union (str.to_re "0") (str.to_re ",") (str.to_re "1") (str.to_re "3"))) (re.range "3" "9"))) (re.++ (str.to_re "5") (re.union (re.++ (str.to_re "0") (re.range "0" "9")) (re.range "1" "8") (re.++ (str.to_re "9") (re.range "0" "9")))) (re.++ (str.to_re "6") (re.union (re.range "0" "6") (re.++ (str.to_re "7") (re.union (str.to_re "0") (str.to_re ",") (re.range "2" "9"))) (re.++ (str.to_re "8") (re.union (re.range "0" "3") (str.to_re ",") (re.range "5" "9"))) (re.++ (str.to_re "9") (re.range "0" "2")))) (str.to_re "7") (re.++ (str.to_re "8") (re.union (re.++ (str.to_re "5") (re.union (str.to_re "0") (str.to_re ",") (str.to_re "2") (str.to_re "3") (str.to_re "5") (str.to_re "6"))) (str.to_re "6") (re.++ (str.to_re "8") (re.union (str.to_re "0") (str.to_re ",") (str.to_re "6"))) (str.to_re "1") (str.to_re ",") (str.to_re "2") (str.to_re "4"))) (re.++ (str.to_re "9") (re.union (re.range "0" "5") (re.++ (str.to_re "6") (re.range "0" "8")) (re.++ (str.to_re "7") (re.range "0" "7")) (str.to_re "8") (re.++ (str.to_re "9") (re.union (re.range "2" "6") (str.to_re "8")))))))
      (re.++ (str.to_re "\u{a}+") (re.union (re.++ (str.to_re "1") (re.opt (str.to_re " ")) (re.opt (re.union (re.++ (str.to_re "1") (re.union (re.++ (str.to_re "4") (re.union (str.to_re "2") (str.to_re ",") (str.to_re "6"))) (re.++ (str.to_re "6") (re.union (str.to_re "4") (str.to_re ",") (str.to_re "8"))) (str.to_re "84"))) (re.++ (str.to_re "34") (re.union (str.to_re "0") (str.to_re "5"))) (re.++ (str.to_re "4") (re.union (str.to_re "41") (str.to_re "73"))) (re.++ (str.to_re "6") (re.union (str.to_re "49") (str.to_re "64") (re.++ (str.to_re "7") (re.union (str.to_re "0") (str.to_re ",") (str.to_re "1"))) (str.to_re "84"))) (re.++ (str.to_re "7") (re.union (str.to_re "58") (str.to_re "67") (re.++ (str.to_re "8") (re.union (str.to_re "4") (str.to_re ",") (str.to_re "7"))))) (re.++ (str.to_re "8") (re.union (str.to_re "09") (str.to_re "29") (re.++ (str.to_re "6") (re.union (str.to_re "8") (str.to_re ",") (str.to_re "9"))) (str.to_re "76"))) (str.to_re "939")))) (re.++ (str.to_re "2") (re.union (str.to_re "0") (re.++ (str.to_re "1") (re.union (re.range "1" "4") (str.to_re ",") (str.to_re "6") (str.to_re "8"))) (re.++ (str.to_re "2") (re.range "0" "9")) (re.++ (str.to_re "3") (re.range "0" "9")) (re.++ (str.to_re "4") (re.range "0" "9")) (re.++ (str.to_re "5") (re.range "0" "8")) (re.++ (str.to_re "6") (re.range "0" "9")) (str.to_re "7") (re.++ (str.to_re "9") (re.union (str.to_re "0") (str.to_re ",") (str.to_re "1") (re.range "8" "9"))))) (re.++ (str.to_re "3") (re.union (re.range "0" "4") (re.++ (str.to_re "5") (re.range "0" "9")) (str.to_re "6") (re.++ (str.to_re "7") (re.range "0" "9")) (re.++ (str.to_re "8") (re.union (re.range "0" "7") (str.to_re ",") (str.to_re "9"))) (str.to_re "9"))) (re.++ (str.to_re "4") (re.union (str.to_re "0") (str.to_re "1") (re.++ (str.to_re "2") (re.union (str.to_re "0") (str.to_re ",") (str.to_re "1") (str.to_re "3"))) (re.range "3" "9"))) (re.++ (str.to_re "5") (re.union (re.++ (str.to_re "0") (re.range "0" "9")) (re.range "1" "8") (re.++ (str.to_re "9") (re.range "0" "9")))) (re.++ (str.to_re "6") (re.union (re.range "0" "6") (re.++ (str.to_re "7") (re.union (str.to_re "0") (str.to_re ",") (re.range "2" "9"))) (re.++ (str.to_re "8") (re.union (re.range "0" "3") (str.to_re ",") (re.range "5" "9"))) (re.++ (str.to_re "9") (re.range "0" "2")))) (str.to_re "7") (re.++ (str.to_re "8") (re.union (re.++ (str.to_re "5") (re.union (str.to_re "0") (str.to_re ",") (str.to_re "2") (str.to_re "3") (str.to_re "5") (str.to_re "6"))) (str.to_re "6") (re.++ (str.to_re "8") (re.union (str.to_re "0") (str.to_re ",") (str.to_re "6"))) (str.to_re "1") (str.to_re ",") (str.to_re "2") (str.to_re "4"))) (re.++ (str.to_re "9") (re.union (re.range "0" "5") (re.++ (str.to_re "6") (re.range "0" "9")) (re.++ (str.to_re "7") (re.range "0" "7")) (str.to_re "8") (re.++ (str.to_re "9") (re.union (re.range "2" "6") (str.to_re "8"))))))))))

(check-sat)
(exit)
